70
1 0 8
2 0 35
2 1 64
3 0 64
3 1 9
3 2 80
4 0 24
4 1 59
4 2 69
4 3 62
5 0 4
5 1 32
5 2 71
5 3 63
5 4 69
6 0 40
6 1 60
6 2 17
6 3 6
6 4 78
6 5 69
7 0 7
7 1 11
7 2 22
7 3 31
7 4 54
7 5 24
7 6 55
8 0 14
8 1 15
8 2 47
8 3 70
8 4 63
8 5 5
8 6 3
8 7 19
9 0 18
9 1 58
9 2 21
9 3 11
9 4 70
9 5 54
9 6 42
9 7 70
9 8 53
10 0 22
10 1 4
10 2 75
10 3 50
10 4 44
10 5 13
10 6 2
10 7 17
10 8 1
10 9 40
11 0 68
11 1 13
11 2 6
11 3 36
11 4 55
11 5 57
11 6 71
11 7 36
11 8 6
11 9 31
11 10 32
12 0 75
12 1 32
12 2 72
12 3 2
12 4 1
12 5 79
12 6 48
12 7 28
12 8 78
12 9 10
12 10 48
12 11 47
13 0 45
13 1 1
13 2 56
13 3 74
13 4 33
13 5 51
13 6 40
13 7 59
13 8 1
13 9 8
13 10 31
13 11 30
13 12 16
14 0 61
14 1 27
14 2 16
14 3 6
14 4 35
14 5 64
14 6 70
14 7 68
14 8 17
14 9 63
14 10 78
14 11 67
14 12 75
14 13 26
15 0 60
15 1 64
15 2 22
15 3 51
15 4 36
15 5 24
15 6 66
15 7 62
15 8 30
15 9 58
15 10 77
15 11 56
15 12 66
15 13 18
15 14 80
16 0 58
16 1 38
16 2 49
16 3 16
16 4 9
16 5 73
16 6 1
16 7 47
16 8 16
16 9 20
16 10 75
16 11 35
16 12 16
16 13 15
16 14 66
16 15 16
17 0 47
17 1 66
17 2 37
17 3 7
17 4 68
17 5 20
17 6 54
17 7 32
17 8 71
17 9 41
17 10 20
17 11 52
17 12 33
17 13 46
17 14 77
17 15 71
17 16 5
18 0 38
18 1 20
18 2 52
18 3 8
18 4 50
18 5 62
18 6 66
18 7 77
18 8 9
18 9 4
18 10 79
18 11 79
18 12 19
18 13 58
18 14 2
18 15 9
18 16 72
18 17 25
19 0 33
19 1 26
19 2 35
19 3 42
19 4 12
19 5 15
19 6 77
19 7 22
19 8 25
19 9 57
19 10 36
19 11 13
19 12 61
19 13 34
19 14 2
19 15 80
19 16 39
19 17 32
19 18 19
20 0 60
20 1 41
20 2 42
20 3 16
20 4 54
20 5 35
20 6 34
20 7 8
20 8 72
20 9 6
20 10 52
20 11 7
20 12 45
20 13 46
20 14 8
20 15 74
20 16 1
20 17 20
20 18 73
20 19 57
21 0 16
21 1 66
21 2 8
21 3 39
21 4 68
21 5 64
21 6 65
21 7 64
21 8 10
21 9 24
21 10 75
21 11 21
21 12 7
21 13 40
21 14 27
21 15 70
21 16 64
21 17 32
21 18 16
21 19 37
21 20 20
22 0 67
22 1 77
22 2 56
22 3 14
22 4 60
22 5 3
22 6 40
22 7 42
22 8 4
22 9 16
22 10 46
22 11 29
22 12 66
22 13 29
22 14 54
22 15 79
22 16 54
22 17 14
22 18 68
22 19 2
22 20 21
22 21 37
23 0 28
23 1 52
23 2 39
23 3 61
23 4 37
23 5 70
23 6 69
23 7 18
23 8 18
23 9 5
23 10 4
23 11 53
23 12 52
23 13 61
23 14 35
23 15 57
23 16 17
23 17 49
23 18 39
23 19 6
23 20 42
23 21 79
23 22 7
24 0 43
24 1 33
24 2 33
24 3 80
24 4 23
24 5 3
24 6 19
24 7 40
24 8 34
24 9 48
24 10 71
24 11 39
24 12 75
24 13 59
24 14 52
24 15 58
24 16 47
24 17 70
24 18 75
24 19 4
24 20 13
24 21 68
24 22 40
24 23 63
25 0 31
25 1 66
25 2 69
25 3 40
25 4 24
25 5 15
25 6 8
25 7 73
25 8 61
25 9 69
25 10 60
25 11 58
25 12 53
25 13 36
25 14 24
25 15 45
25 16 67
25 17 80
25 18 61
25 19 17
25 20 60
25 21 21
25 22 9
25 23 5
25 24 37
26 0 68
26 1 59
26 2 21
26 3 44
26 4 51
26 5 2
26 6 5
26 7 70
26 8 13
26 9 65
26 10 32
26 11 27
26 12 15
26 13 34
26 14 44
26 15 17
26 16 30
26 17 25
26 18 46
26 19 37
26 20 62
26 21 55
26 22 62
26 23 21
26 24 66
26 25 50
27 0 37
27 1 54
27 2 65
27 3 35
27 4 51
27 5 1
27 6 3
27 7 35
27 8 43
27 9 42
27 10 13
27 11 28
27 12 2
27 13 33
27 14 45
27 15 69
27 16 26
27 17 16
27 18 47
27 19 19
27 20 50
27 21 80
27 22 73
27 23 76
27 24 32
27 25 31
27 26 57
28 0 54
28 1 56
28 2 52
28 3 5
28 4 12
28 5 43
28 6 59
28 7 65
28 8 63
28 9 22
28 10 22
28 11 6
28 12 4
28 13 48
28 14 23
28 15 65
28 16 61
28 17 28
28 18 52
28 19 21
28 20 15
28 21 49
28 22 29
28 23 19
28 24 30
28 25 40
28 26 6
28 27 35
29 0 6
29 1 51
29 2 48
29 3 35
29 4 22
29 5 38
29 6 22
29 7 65
29 8 18
29 9 53
29 10 32
29 11 56
29 12 28
29 13 20
29 14 8
29 15 67
29 16 43
29 17 33
29 18 35
29 19 48
29 20 60
29 21 2
29 22 39
29 23 64
29 24 50
29 25 18
29 26 59
29 27 20
29 28 5
30 0 57
30 1 13
30 2 27
30 3 35
30 4 53
30 5 51
30 6 74
30 7 13
30 8 22
30 9 52
30 10 53
30 11 70
30 12 30
30 13 34
30 14 28
30 15 10
30 16 56
30 17 3
30 18 64
30 19 59
30 20 52
30 21 72
30 22 46
30 23 69
30 24 61
30 25 79
30 26 34
30 27 49
30 28 10
30 29 38
31 0 32
31 1 67
31 2 29
31 3 48
31 4 62
31 5 12
31 6 19
31 7 23
31 8 31
31 9 43
31 10 56
31 11 31
31 12 11
31 13 12
31 14 75
31 15 70
31 16 40
31 17 73
31 18 4
31 19 17
31 20 37
31 21 16
31 22 2
31 23 66
31 24 19
31 25 53
31 26 32
31 27 27
31 28 43
31 29 4
31 30 57
32 0 77
32 1 38
32 2 37
32 3 43
32 4 26
32 5 13
32 6 38
32 7 73
32 8 42
32 9 56
32 10 3
32 11 14
32 12 15
32 13 6
32 14 4
32 15 60
32 16 74
32 17 9
32 18 15
32 19 33
32 20 26
32 21 61
32 22 14
32 23 61
32 24 38
32 25 75
32 26 50
32 27 24
32 28 54
32 29 3
32 30 18
32 31 19
33 0 53
33 1 58
33 2 68
33 3 58
33 4 58
33 5 46
33 6 69
33 7 33
33 8 31
33 9 65
33 10 54
33 11 28
33 12 52
33 13 4
33 14 31
33 15 59
33 16 65
33 17 66
33 18 79
33 19 77
33 20 36
33 21 35
33 22 39
33 23 75
33 24 14
33 25 24
33 26 3
33 27 61
33 28 6
33 29 61
33 30 60
33 31 13
33 32 6
34 0 20
34 1 73
34 2 14
34 3 44
34 4 4
34 5 58
34 6 5
34 7 75
34 8 8
34 9 59
34 10 45
34 11 21
34 12 63
34 13 62
34 14 63
34 15 61
34 16 27
34 17 70
34 18 32
34 19 80
34 20 40
34 21 33
34 22 76
34 23 12
34 24 46
34 25 70
34 26 37
34 27 31
34 28 72
34 29 34
34 30 51
34 31 49
34 32 37
34 33 43
35 0 28
35 1 69
35 2 10
35 3 35
35 4 14
35 5 7
35 6 66
35 7 52
35 8 11
35 9 18
35 10 42
35 11 36
35 12 9
35 13 68
35 14 64
35 15 61
35 16 25
35 17 51
35 18 46
35 19 52
35 20 73
35 21 40
35 22 10
35 23 60
35 24 63
35 25 13
35 26 30
35 27 12
35 28 66
35 29 39
35 30 30
35 31 37
35 32 26
35 33 72
35 34 13
36 0 17
36 1 38
36 2 46
36 3 42
36 4 75
36 5 72
36 6 35
36 7 38
36 8 17
36 9 56
36 10 74
36 11 21
36 12 72
36 13 47
36 14 12
36 15 30
36 16 11
36 17 1
36 18 7
36 19 61
36 20 66
36 21 25
36 22 50
36 23 22
36 24 71
36 25 28
36 26 54
36 27 12
36 28 11
36 29 13
36 30 77
36 31 62
36 32 1
36 33 40
36 34 68
36 35 32
37 0 7
37 1 42
37 2 30
37 3 15
37 4 28
37 5 55
37 6 42
37 7 4
37 8 59
37 9 67
37 10 29
37 11 3
37 12 5
37 13 78
37 14 33
37 15 15
37 16 54
37 17 14
37 18 36
37 19 19
37 20 36
37 21 60
37 22 61
37 23 30
37 24 59
37 25 28
37 26 32
37 27 21
37 28 33
37 29 80
37 30 77
37 31 60
37 32 40
37 33 75
37 34 75
37 35 80
37 36 42
38 0 64
38 1 63
38 2 12
38 3 67
38 4 63
38 5 6
38 6 47
38 7 53
38 8 35
38 9 44
38 10 33
38 11 17
38 12 37
38 13 63
38 14 69
38 15 45
38 16 61
38 17 71
38 18 45
38 19 76
38 20 17
38 21 35
38 22 77
38 23 48
38 24 28
38 25 38
38 26 30
38 27 27
38 28 61
38 29 38
38 30 32
38 31 52
38 32 58
38 33 26
38 34 55
38 35 63
38 36 54
38 37 75
39 0 23
39 1 19
39 2 28
39 3 3
39 4 8
39 5 48
39 6 54
39 7 9
39 8 10
39 9 48
39 10 69
39 11 51
39 12 41
39 13 77
39 14 24
39 15 8
39 16 55
39 17 13
39 18 77
39 19 31
39 20 76
39 21 40
39 22 56
39 23 47
39 24 35
39 25 69
39 26 42
39 27 14
39 28 20
39 29 7
39 30 57
39 31 28
39 32 9
39 33 77
39 34 34
39 35 64
39 36 5
39 37 14
39 38 3
40 0 10
40 1 64
40 2 53
40 3 47
40 4 76
40 5 60
40 6 27
40 7 62
40 8 13
40 9 12
40 10 8
40 11 53
40 12 3
40 13 39
40 14 38
40 15 73
40 16 4
40 17 14
40 18 32
40 19 4
40 20 53
40 21 28
40 22 7
40 23 33
40 24 33
40 25 8
40 26 69
40 27 40
40 28 5
40 29 47
40 30 24
40 31 3
40 32 57
40 33 64
40 34 26
40 35 76
40 36 3
40 37 69
40 38 75
40 39 68
41 0 80
41 1 26
41 2 55
41 3 11
41 4 78
41 5 54
41 6 19
41 7 40
41 8 63
41 9 3
41 10 36
41 11 30
41 12 27
41 13 65
41 14 70
41 15 2
41 16 62
41 17 62
41 18 53
41 19 75
41 20 16
41 21 72
41 22 27
41 23 57
41 24 62
41 25 53
41 26 54
41 27 71
41 28 20
41 29 79
41 30 63
41 31 17
41 32 44
41 33 71
41 34 28
41 35 26
41 36 73
41 37 28
41 38 19
41 39 65
41 40 57
42 0 20
42 1 14
42 2 9
42 3 70
42 4 14
42 5 13
42 6 79
42 7 46
42 8 46
42 9 60
42 10 7
42 11 58
42 12 42
42 13 41
42 14 8
42 15 15
42 16 73
42 17 10
42 18 49
42 19 4
42 20 15
42 21 3
42 22 30
42 23 11
42 24 50
42 25 50
42 26 65
42 27 49
42 28 69
42 29 17
42 30 75
42 31 50
42 32 19
42 33 41
42 34 77
42 35 76
42 36 9
42 37 19
42 38 22
42 39 30
42 40 18
42 41 2
43 0 51
43 1 10
43 2 57
43 3 64
43 4 54
43 5 56
43 6 38
43 7 29
43 8 7
43 9 69
43 10 67
43 11 67
43 12 9
43 13 37
43 14 65
43 15 3
43 16 19
43 17 63
43 18 37
43 19 11
43 20 5
43 21 14
43 22 2
43 23 9
43 24 76
43 25 17
43 26 65
43 27 68
43 28 65
43 29 78
43 30 11
43 31 68
43 32 3
43 33 66
43 34 71
43 35 71
43 36 57
43 37 66
43 38 8
43 39 21
43 40 28
43 41 78
43 42 4
44 0 20
44 1 71
44 2 38
44 3 50
44 4 1
44 5 57
44 6 2
44 7 63
44 8 9
44 9 72
44 10 59
44 11 54
44 12 22
44 13 80
44 14 10
44 15 33
44 16 8
44 17 73
44 18 34
44 19 71
44 20 76
44 21 73
44 22 2
44 23 76
44 24 5
44 25 55
44 26 61
44 27 58
44 28 60
44 29 77
44 30 40
44 31 7
44 32 11
44 33 16
44 34 23
44 35 47
44 36 62
44 37 18
44 38 53
44 39 16
44 40 26
44 41 7
44 42 24
44 43 50
45 0 66
45 1 16
45 2 70
45 3 31
45 4 29
45 5 53
45 6 70
45 7 42
45 8 22
45 9 37
45 10 55
45 11 64
45 12 8
45 13 59
45 14 22
45 15 74
45 16 62
45 17 36
45 18 19
45 19 60
45 20 8
45 21 4
45 22 3
45 23 74
45 24 21
45 25 4
45 26 58
45 27 14
45 28 69
45 29 47
45 30 32
45 31 15
45 32 1
45 33 25
45 34 29
45 35 79
45 36 14
45 37 26
45 38 37
45 39 4
45 40 79
45 41 69
45 42 32
45 43 54
45 44 13
46 0 1
46 1 52
46 2 24
46 3 12
46 4 50
46 5 48
46 6 64
46 7 31
46 8 26
46 9 69
46 10 79
46 11 3
46 12 11
46 13 65
46 14 63
46 15 56
46 16 6
46 17 2
46 18 68
46 19 36
46 20 8
46 21 79
46 22 46
46 23 15
46 24 60
46 25 23
46 26 62
46 27 23
46 28 56
46 29 19
46 30 43
46 31 58
46 32 8
46 33 44
46 34 71
46 35 38
46 36 7
46 37 39
46 38 28
46 39 59
46 40 17
46 41 62
46 42 54
46 43 16
46 44 41
46 45 2
47 0 5
47 1 46
47 2 34
47 3 41
47 4 63
47 5 80
47 6 63
47 7 51
47 8 9
47 9 2
47 10 63
47 11 19
47 12 63
47 13 29
47 14 27
47 15 62
47 16 45
47 17 41
47 18 37
47 19 77
47 20 45
47 21 8
47 22 44
47 23 20
47 24 23
47 25 31
47 26 46
47 27 45
47 28 66
47 29 20
47 30 60
47 31 67
47 32 31
47 33 70
47 34 80
47 35 36
47 36 15
47 37 53
47 38 37
47 39 45
47 40 41
47 41 16
47 42 54
47 43 77
47 44 22
47 45 22
47 46 28
48 0 73
48 1 38
48 2 27
48 3 62
48 4 4
48 5 35
48 6 76
48 7 23
48 8 42
48 9 53
48 10 70
48 11 30
48 12 54
48 13 50
48 14 3
48 15 22
48 16 3
48 17 74
48 18 46
48 19 14
48 20 46
48 21 56
48 22 43
48 23 37
48 24 25
48 25 7
48 26 3
48 27 40
48 28 59
48 29 80
48 30 71
48 31 72
48 32 62
48 33 77
48 34 4
48 35 31
48 36 9
48 37 24
48 38 38
48 39 43
48 40 17
48 41 9
48 42 2
48 43 10
48 44 15
48 45 79
48 46 54
48 47 68
49 0 49
49 1 80
49 2 11
49 3 51
49 4 59
49 5 67
49 6 53
49 7 60
49 8 48
49 9 71
49 10 46
49 11 40
49 12 31
49 13 55
49 14 62
49 15 15
49 16 55
49 17 9
49 18 35
49 19 58
49 20 40
49 21 77
49 22 44
49 23 72
49 24 26
49 25 21
49 26 65
49 27 16
49 28 54
49 29 4
49 30 31
49 31 76
49 32 55
49 33 45
49 34 32
49 35 70
49 36 57
49 37 27
49 38 77
49 39 33
49 40 17
49 41 14
49 42 36
49 43 45
49 44 16
49 45 34
49 46 6
49 47 66
49 48 3
50 0 64
50 1 11
50 2 55
50 3 35
50 4 60
50 5 29
50 6 60
50 7 74
50 8 9
50 9 22
50 10 27
50 11 8
50 12 35
50 13 40
50 14 14
50 15 29
50 16 42
50 17 41
50 18 42
50 19 16
50 20 52
50 21 12
50 22 79
50 23 78
50 24 66
50 25 66
50 26 50
50 27 64
50 28 3
50 29 38
50 30 20
50 31 12
50 32 8
50 33 41
50 34 1
50 35 2
50 36 65
50 37 30
50 38 52
50 39 4
50 40 37
50 41 34
50 42 80
50 43 59
50 44 65
50 45 21
50 46 53
50 47 55
50 48 16
50 49 64
51 0 66
51 1 52
51 2 23
51 3 50
51 4 70
51 5 46
51 6 56
51 7 25
51 8 1
51 9 8
51 10 46
51 11 4
51 12 10
51 13 21
51 14 54
51 15 48
51 16 61
51 17 6
51 18 48
51 19 13
51 20 58
51 21 43
51 22 27
51 23 13
51 24 62
51 25 7
51 26 16
51 27 65
51 28 36
51 29 44
51 30 57
51 31 58
51 32 80
51 33 20
51 34 18
51 35 29
51 36 63
51 37 42
51 38 3
51 39 65
51 40 73
51 41 14
51 42 52
51 43 18
51 44 61
51 45 30
51 46 17
51 47 79
51 48 54
51 49 7
51 50 19
52 0 27
52 1 7
52 2 2
52 3 27
52 4 14
52 5 62
52 6 62
52 7 30
52 8 4
52 9 78
52 10 46
52 11 33
52 12 58
52 13 52
52 14 60
52 15 27
52 16 69
52 17 11
52 18 3
52 19 74
52 20 41
52 21 61
52 22 12
52 23 67
52 24 49
52 25 42
52 26 16
52 27 64
52 28 58
52 29 47
52 30 6
52 31 77
52 32 40
52 33 23
52 34 66
52 35 10
52 36 67
52 37 7
52 38 37
52 39 28
52 40 46
52 41 30
52 42 80
52 43 19
52 44 16
52 45 16
52 46 33
52 47 64
52 48 3
52 49 32
52 50 79
52 51 54
53 0 57
53 1 51
53 2 15
53 3 11
53 4 79
53 5 17
53 6 3
53 7 29
53 8 19
53 9 66
53 10 43
53 11 38
53 12 7
53 13 51
53 14 63
53 15 59
53 16 10
53 17 12
53 18 59
53 19 57
53 20 45
53 21 77
53 22 52
53 23 14
53 24 27
53 25 19
53 26 76
53 27 39
53 28 7
53 29 48
53 30 57
53 31 15
53 32 62
53 33 53
53 34 25
53 35 29
53 36 13
53 37 39
53 38 54
53 39 2
53 40 19
53 41 52
53 42 26
53 43 33
53 44 26
53 45 54
53 46 22
53 47 6
53 48 41
53 49 12
53 50 2
53 51 4
53 52 53
54 0 48
54 1 64
54 2 50
54 3 6
54 4 1
54 5 27
54 6 29
54 7 36
54 8 51
54 9 3
54 10 34
54 11 3
54 12 36
54 13 26
54 14 39
54 15 72
54 16 22
54 17 26
54 18 45
54 19 50
54 20 48
54 21 46
54 22 54
54 23 6
54 24 43
54 25 1
54 26 19
54 27 71
54 28 36
54 29 42
54 30 31
54 31 78
54 32 11
54 33 5
54 34 67
54 35 79
54 36 61
54 37 67
54 38 72
54 39 55
54 40 61
54 41 8
54 42 62
54 43 54
54 44 37
54 45 61
54 46 11
54 47 64
54 48 14
54 49 41
54 50 64
54 51 30
54 52 78
54 53 48
55 0 75
55 1 64
55 2 34
55 3 2
55 4 1
55 5 38
55 6 77
55 7 5
55 8 43
55 9 68
55 10 62
55 11 27
55 12 23
55 13 16
55 14 12
55 15 63
55 16 42
55 17 31
55 18 75
55 19 24
55 20 38
55 21 51
55 22 36
55 23 59
55 24 76
55 25 18
55 26 70
55 27 80
55 28 79
55 29 36
55 30 14
55 31 62
55 32 76
55 33 38
55 34 73
55 35 44
55 36 15
55 37 56
55 38 50
55 39 3
55 40 44
55 41 71
55 42 41
55 43 57
55 44 9
55 45 22
55 46 55
55 47 48
55 48 77
55 49 8
55 50 19
55 51 12
55 52 80
55 53 46
55 54 66
56 0 74
56 1 78
56 2 18
56 3 41
56 4 52
56 5 19
56 6 61
56 7 11
56 8 40
56 9 80
56 10 34
56 11 36
56 12 74
56 13 3
56 14 9
56 15 57
56 16 26
56 17 8
56 18 63
56 19 41
56 20 28
56 21 40
56 22 10
56 23 7
56 24 50
56 25 53
56 26 14
56 27 25
56 28 22
56 29 41
56 30 57
56 31 10
56 32 31
56 33 10
56 34 31
56 35 12
56 36 31
56 37 74
56 38 79
56 39 60
56 40 5
56 41 27
56 42 22
56 43 57
56 44 38
56 45 55
56 46 26
56 47 25
56 48 13
56 49 72
56 50 23
56 51 44
56 52 29
56 53 9
56 54 77
56 55 60
57 0 5
57 1 17
57 2 61
57 3 58
57 4 18
57 5 16
57 6 58
57 7 26
57 8 40
57 9 41
57 10 64
57 11 9
57 12 3
57 13 7
57 14 43
57 15 19
57 16 43
57 17 40
57 18 72
57 19 1
57 20 37
57 21 41
57 22 71
57 23 57
57 24 7
57 25 8
57 26 3
57 27 32
57 28 64
57 29 37
57 30 10
57 31 8
57 32 68
57 33 62
57 34 51
57 35 32
57 36 35
57 37 58
57 38 60
57 39 29
57 40 73
57 41 74
57 42 75
57 43 36
57 44 26
57 45 65
57 46 35
57 47 46
57 48 58
57 49 65
57 50 18
57 51 59
57 52 79
57 53 46
57 54 14
57 55 63
57 56 64
58 0 56
58 1 43
58 2 18
58 3 41
58 4 26
58 5 4
58 6 80
58 7 49
58 8 34
58 9 12
58 10 1
58 11 10
58 12 53
58 13 14
58 14 36
58 15 30
58 16 14
58 17 44
58 18 26
58 19 55
58 20 55
58 21 21
58 22 72
58 23 4
58 24 60
58 25 20
58 26 57
58 27 67
58 28 2
58 29 28
58 30 37
58 31 8
58 32 77
58 33 3
58 34 80
58 35 3
58 36 16
58 37 13
58 38 18
58 39 43
58 40 49
58 41 10
58 42 33
58 43 14
58 44 67
58 45 49
58 46 41
58 47 57
58 48 45
58 49 47
58 50 30
58 51 20
58 52 15
58 53 79
58 54 74
58 55 35
58 56 26
58 57 67
59 0 51
59 1 39
59 2 38
59 3 16
59 4 2
59 5 64
59 6 63
59 7 35
59 8 75
59 9 41
59 10 50
59 11 60
59 12 61
59 13 24
59 14 43
59 15 60
59 16 80
59 17 5
59 18 60
59 19 65
59 20 47
59 21 56
59 22 19
59 23 9
59 24 17
59 25 53
59 26 4
59 27 78
59 28 26
59 29 21
59 30 43
59 31 59
59 32 39
59 33 72
59 34 35
59 35 9
59 36 50
59 37 49
59 38 14
59 39 13
59 40 67
59 41 51
59 42 52
59 43 73
59 44 25
59 45 74
59 46 47
59 47 41
59 48 13
59 49 62
59 50 2
59 51 39
59 52 22
59 53 77
59 54 48
59 55 15
59 56 59
59 57 8
59 58 58
60 0 63
60 1 11
60 2 18
60 3 59
60 4 31
60 5 74
60 6 43
60 7 59
60 8 75
60 9 49
60 10 3
60 11 45
60 12 10
60 13 47
60 14 39
60 15 19
60 16 36
60 17 51
60 18 61
60 19 56
60 20 6
60 21 54
60 22 55
60 23 62
60 24 28
60 25 4
60 26 70
60 27 61
60 28 64
60 29 47
60 30 7
60 31 62
60 32 13
60 33 16
60 34 21
60 35 6
60 36 72
60 37 53
60 38 15
60 39 70
60 40 73
60 41 80
60 42 27
60 43 25
60 44 50
60 45 35
60 46 41
60 47 51
60 48 61
60 49 80
60 50 27
60 51 64
60 52 16
60 53 7
60 54 40
60 55 2
60 56 71
60 57 63
60 58 41
60 59 71
61 0 59
61 1 45
61 2 34
61 3 20
61 4 73
61 5 44
61 6 38
61 7 69
61 8 75
61 9 75
61 10 73
61 11 39
61 12 43
61 13 67
61 14 28
61 15 1
61 16 16
61 17 44
61 18 31
61 19 65
61 20 62
61 21 42
61 22 22
61 23 17
61 24 52
61 25 12
61 26 7
61 27 7
61 28 28
61 29 5
61 30 41
61 31 52
61 32 44
61 33 77
61 34 9
61 35 11
61 36 63
61 37 63
61 38 79
61 39 2
61 40 47
61 41 70
61 42 73
61 43 56
61 44 42
61 45 48
61 46 39
61 47 79
61 48 46
61 49 22
61 50 72
61 51 67
61 52 65
61 53 54
61 54 17
61 55 5
61 56 7
61 57 16
61 58 40
61 59 2
61 60 52
62 0 50
62 1 80
62 2 48
62 3 31
62 4 8
62 5 21
62 6 57
62 7 34
62 8 44
62 9 74
62 10 37
62 11 25
62 12 71
62 13 41
62 14 47
62 15 55
62 16 50
62 17 47
62 18 53
62 19 48
62 20 53
62 21 74
62 22 27
62 23 43
62 24 48
62 25 56
62 26 51
62 27 2
62 28 48
62 29 61
62 30 2
62 31 17
62 32 60
62 33 39
62 34 48
62 35 76
62 36 47
62 37 78
62 38 80
62 39 19
62 40 69
62 41 20
62 42 39
62 43 68
62 44 10
62 45 77
62 46 44
62 47 67
62 48 42
62 49 64
62 50 74
62 51 5
62 52 64
62 53 23
62 54 66
62 55 69
62 56 44
62 57 9
62 58 69
62 59 51
62 60 9
62 61 69
63 0 62
63 1 76
63 2 58
63 3 63
63 4 19
63 5 33
63 6 67
63 7 20
63 8 13
63 9 27
63 10 46
63 11 57
63 12 18
63 13 8
63 14 66
63 15 36
63 16 55
63 17 56
63 18 46
63 19 45
63 20 49
63 21 55
63 22 21
63 23 53
63 24 16
63 25 64
63 26 26
63 27 43
63 28 53
63 29 61
63 30 25
63 31 50
63 32 74
63 33 12
63 34 13
63 35 72
63 36 14
63 37 21
63 38 34
63 39 74
63 40 71
63 41 32
63 42 60
63 43 58
63 44 1
63 45 4
63 46 60
63 47 73
63 48 22
63 49 65
63 50 8
63 51 35
63 52 69
63 53 79
63 54 36
63 55 40
63 56 5
63 57 34
63 58 49
63 59 57
63 60 31
63 61 62
63 62 3
64 0 49
64 1 37
64 2 26
64 3 37
64 4 77
64 5 49
64 6 21
64 7 39
64 8 45
64 9 65
64 10 49
64 11 6
64 12 24
64 13 65
64 14 54
64 15 50
64 16 1
64 17 11
64 18 35
64 19 75
64 20 7
64 21 44
64 22 17
64 23 9
64 24 75
64 25 14
64 26 61
64 27 36
64 28 71
64 29 17
64 30 37
64 31 56
64 32 3
64 33 12
64 34 17
64 35 18
64 36 9
64 37 55
64 38 27
64 39 13
64 40 25
64 41 75
64 42 46
64 43 23
64 44 76
64 45 48
64 46 67
64 47 37
64 48 80
64 49 3
64 50 39
64 51 62
64 52 9
64 53 52
64 54 16
64 55 50
64 56 53
64 57 69
64 58 57
64 59 50
64 60 63
64 61 42
64 62 79
64 63 63
65 0 55
65 1 68
65 2 48
65 3 50
65 4 31
65 5 68
65 6 40
65 7 77
65 8 72
65 9 80
65 10 15
65 11 45
65 12 45
65 13 63
65 14 15
65 15 4
65 16 52
65 17 8
65 18 30
65 19 50
65 20 79
65 21 57
65 22 26
65 23 40
65 24 70
65 25 32
65 26 73
65 27 3
65 28 38
65 29 30
65 30 59
65 31 18
65 32 63
65 33 4
65 34 24
65 35 67
65 36 55
65 37 25
65 38 58
65 39 17
65 40 39
65 41 74
65 42 45
65 43 71
65 44 26
65 45 52
65 46 7
65 47 23
65 48 12
65 49 17
65 50 79
65 51 15
65 52 79
65 53 15
65 54 33
65 55 56
65 56 14
65 57 35
65 58 53
65 59 12
65 60 20
65 61 67
65 62 21
65 63 63
65 64 77
66 0 13
66 1 78
66 2 33
66 3 49
66 4 32
66 5 69
66 6 34
66 7 46
66 8 14
66 9 75
66 10 44
66 11 54
66 12 56
66 13 42
66 14 54
66 15 80
66 16 36
66 17 44
66 18 19
66 19 4
66 20 72
66 21 46
66 22 12
66 23 35
66 24 32
66 25 70
66 26 31
66 27 49
66 28 36
66 29 17
66 30 39
66 31 7
66 32 79
66 33 9
66 34 60
66 35 36
66 36 2
66 37 47
66 38 58
66 39 72
66 40 19
66 41 47
66 42 38
66 43 11
66 44 5
66 45 78
66 46 51
66 47 76
66 48 37
66 49 43
66 50 8
66 51 59
66 52 34
66 53 18
66 54 2
66 55 62
66 56 71
66 57 72
66 58 42
66 59 9
66 60 48
66 61 11
66 62 3
66 63 19
66 64 10
66 65 75
67 0 34
67 1 79
67 2 3
67 3 18
67 4 19
67 5 30
67 6 75
67 7 56
67 8 51
67 9 19
67 10 79
67 11 29
67 12 77
67 13 69
67 14 68
67 15 48
67 16 79
67 17 5
67 18 39
67 19 72
67 20 22
67 21 30
67 22 7
67 23 41
67 24 9
67 25 22
67 26 75
67 27 43
67 28 14
67 29 45
67 30 27
67 31 19
67 32 52
67 33 38
67 34 52
67 35 59
67 36 44
67 37 80
67 38 74
67 39 28
67 40 40
67 41 39
67 42 11
67 43 75
67 44 19
67 45 54
67 46 53
67 47 34
67 48 37
67 49 40
67 50 33
67 51 14
67 52 75
67 53 38
67 54 14
67 55 62
67 56 70
67 57 40
67 58 61
67 59 51
67 60 12
67 61 18
67 62 80
67 63 28
67 64 53
67 65 43
67 66 67
68 0 48
68 1 1
68 2 57
68 3 1
68 4 24
68 5 32
68 6 15
68 7 7
68 8 14
68 9 16
68 10 19
68 11 55
68 12 57
68 13 64
68 14 63
68 15 35
68 16 50
68 17 46
68 18 18
68 19 59
68 20 74
68 21 10
68 22 80
68 23 39
68 24 32
68 25 6
68 26 22
68 27 38
68 28 2
68 29 11
68 30 5
68 31 61
68 32 53
68 33 22
68 34 27
68 35 51
68 36 1
68 37 78
68 38 32
68 39 51
68 40 55
68 41 15
68 42 22
68 43 78
68 44 2
68 45 32
68 46 74
68 47 19
68 48 52
68 49 57
68 50 48
68 51 12
68 52 27
68 53 10
68 54 52
68 55 78
68 56 26
68 57 27
68 58 47
68 59 42
68 60 30
68 61 46
68 62 7
68 63 15
68 64 11
68 65 46
68 66 40
68 67 19
69 0 38
69 1 41
69 2 66
69 3 27
69 4 12
69 5 41
69 6 23
69 7 11
69 8 56
69 9 17
69 10 80
69 11 19
69 12 38
69 13 15
69 14 27
69 15 2
69 16 30
69 17 47
69 18 78
69 19 79
69 20 38
69 21 4
69 22 58
69 23 60
69 24 58
69 25 58
69 26 60
69 27 67
69 28 36
69 29 17
69 30 39
69 31 53
69 32 14
69 33 34
69 34 57
69 35 61
69 36 16
69 37 73
69 38 32
69 39 65
69 40 63
69 41 12
69 42 12
69 43 6
69 44 78
69 45 50
69 46 63
69 47 44
69 48 27
69 49 78
69 50 75
69 51 46
69 52 22
69 53 32
69 54 72
69 55 77
69 56 43
69 57 80
69 58 12
69 59 66
69 60 13
69 61 76
69 62 18
69 63 48
69 64 76
69 65 50
69 66 64
69 67 3
69 68 25
